200
50 50
1 35 397
2 35 366
3 35 191
4 34 236
5 34 191
6 34 311
7 34 275
8 33 324
9 33 206
10 33 596
11 33 534
12 33 165
13 33 907
14 32 25
15 32 629
16 32 111
17 32 719
18 32 32
19 32 326
20 31 140
21 31 756
22 31 865
23 31 589
24 31 102
25 31 523
26 31 207
27 30 97
28 30 258
29 30 282
30 30 521
31 30 192
32 30 138
33 30 957
34 30 423
35 30 426
36 29 178
37 29 392
38 28 844
39 28 525
40 28 125
41 28 904
42 28 374
43 28 905
44 28 725
45 28 285
46 27 926
47 27 534
48 27 651
49 27 990
50 27 191
51 27 336
52 27 671
53 27 567
54 26 142
55 26 230
56 26 886
57 26 565
58 26 391
59 26 266
60 25 544
61 25 630
62 25 347
63 25 840
64 24 447
65 24 486
66 24 79
67 24 893
68 23 193
69 23 517
70 23 650
71 23 423
72 23 730
73 23 533
74 22 995
75 22 624
76 22 429
77 22 477
78 22 990
79 22 362
80 22 166
81 21 923
82 21 791
83 21 155
84 21 335
85 21 870
86 21 717
87 21 206
88 21 904
89 21 962
90 21 203
91 21 687
92 20 524
93 20 707
94 20 66
95 20 312
96 20 614
97 20 688
98 20 372
99 20 4
100 19 558
101 19 469
102 19 295
103 19 552
104 18 846
105 18 632
106 18 31
107 18 149
108 18 974
109 18 594
110 18 375
111 17 518
112 17 614
113 17 583
114 17 62
115 17 241
116 17 285
117 16 52
118 16 160
119 16 922
120 16 445
121 16 964
122 16 50
123 15 690
124 15 767
125 15 551
126 15 157
127 15 551
128 15 134
129 15 120
130 15 660
131 14 329
132 14 43
133 14 490
134 14 191
135 14 98
136 14 944
137 14 499
138 14 757
139 14 123
140 14 977
141 14 666
142 13 584
143 13 402
144 13 495
145 13 865
146 13 398
147 13 561
148 13 163
149 13 648
150 13 425
151 13 975
152 13 156
153 13 18
154 13 827
155 12 1
156 12 230
157 12 241
158 12 343
159 12 285
160 12 677
161 12 739
162 11 248
163 11 285
164 10 954
165 10 906
166 10 714
167 10 536
168 10 534
169 9 529
170 9 356
171 9 700
172 9 523
173 9 553
174 9 358
175 9 172
176 8 167
177 8 622
178 8 868
179 8 165
180 8 859
181 8 114
182 8 192
183 7 205
184 7 612
185 7 551
186 7 760
187 7 564
188 7 328
189 7 627
190 6 977
191 6 722
192 6 507
193 6 442
194 6 866
195 6 722
196 5 551
197 5 505
198 5 126
199 5 676
200 5 360
